% Generated by MiniZinc 2.9.3
% Solver library: /opt/homebrew/Cellar/minizinc/2.9.3/share/minizinc/gecode_presolver
% Command line invocation: minizinc --solver org.gecode --compile 054_queens3.mzn 

predicate gecode_all_different_int(array [int] of var int: x);
array [1..2] of int: X_INTRODUCED_24_ = [1,-1];
var 1..8: X_INTRODUCED_16_;
var 1..8: X_INTRODUCED_17_;
var 1..8: X_INTRODUCED_18_;
var 1..8: X_INTRODUCED_19_;
var 1..8: X_INTRODUCED_20_;
var 1..8: X_INTRODUCED_21_;
var 1..8: X_INTRODUCED_22_;
var 1..8: X_INTRODUCED_23_;
array [1..8] of var int: queens:: output_array([1..8]) = [X_INTRODUCED_16_,X_INTRODUCED_17_,X_INTRODUCED_18_,X_INTRODUCED_19_,X_INTRODUCED_20_,X_INTRODUCED_21_,X_INTRODUCED_22_,X_INTRODUCED_23_];
constraint gecode_all_different_int(queens);
constraint int_lin_ne(X_INTRODUCED_24_,[X_INTRODUCED_16_,X_INTRODUCED_17_],0);
constraint int_lin_ne(X_INTRODUCED_24_,[X_INTRODUCED_16_,X_INTRODUCED_17_],1);
constraint int_lin_ne(X_INTRODUCED_24_,[X_INTRODUCED_16_,X_INTRODUCED_17_],-1);
constraint int_lin_ne(X_INTRODUCED_24_,[X_INTRODUCED_16_,X_INTRODUCED_18_],0);
constraint int_lin_ne(X_INTRODUCED_24_,[X_INTRODUCED_16_,X_INTRODUCED_18_],2);
constraint int_lin_ne(X_INTRODUCED_24_,[X_INTRODUCED_16_,X_INTRODUCED_18_],-2);
constraint int_lin_ne(X_INTRODUCED_24_,[X_INTRODUCED_16_,X_INTRODUCED_19_],0);
constraint int_lin_ne(X_INTRODUCED_24_,[X_INTRODUCED_16_,X_INTRODUCED_19_],3);
constraint int_lin_ne(X_INTRODUCED_24_,[X_INTRODUCED_16_,X_INTRODUCED_19_],-3);
constraint int_lin_ne(X_INTRODUCED_24_,[X_INTRODUCED_16_,X_INTRODUCED_20_],0);
constraint int_lin_ne(X_INTRODUCED_24_,[X_INTRODUCED_16_,X_INTRODUCED_20_],4);
constraint int_lin_ne(X_INTRODUCED_24_,[X_INTRODUCED_16_,X_INTRODUCED_20_],-4);
constraint int_lin_ne(X_INTRODUCED_24_,[X_INTRODUCED_16_,X_INTRODUCED_21_],0);
constraint int_lin_ne(X_INTRODUCED_24_,[X_INTRODUCED_16_,X_INTRODUCED_21_],5);
constraint int_lin_ne(X_INTRODUCED_24_,[X_INTRODUCED_16_,X_INTRODUCED_21_],-5);
constraint int_lin_ne(X_INTRODUCED_24_,[X_INTRODUCED_16_,X_INTRODUCED_22_],0);
constraint int_lin_ne(X_INTRODUCED_24_,[X_INTRODUCED_16_,X_INTRODUCED_22_],6);
constraint int_lin_ne(X_INTRODUCED_24_,[X_INTRODUCED_16_,X_INTRODUCED_22_],-6);
constraint int_lin_ne(X_INTRODUCED_24_,[X_INTRODUCED_16_,X_INTRODUCED_23_],0);
constraint int_lin_ne(X_INTRODUCED_24_,[X_INTRODUCED_16_,X_INTRODUCED_23_],7);
constraint int_lin_ne(X_INTRODUCED_24_,[X_INTRODUCED_16_,X_INTRODUCED_23_],-7);
constraint int_lin_ne(X_INTRODUCED_24_,[X_INTRODUCED_17_,X_INTRODUCED_18_],0);
constraint int_lin_ne(X_INTRODUCED_24_,[X_INTRODUCED_17_,X_INTRODUCED_18_],1);
constraint int_lin_ne(X_INTRODUCED_24_,[X_INTRODUCED_17_,X_INTRODUCED_18_],-1);
constraint int_lin_ne(X_INTRODUCED_24_,[X_INTRODUCED_17_,X_INTRODUCED_19_],0);
constraint int_lin_ne(X_INTRODUCED_24_,[X_INTRODUCED_17_,X_INTRODUCED_19_],2);
constraint int_lin_ne(X_INTRODUCED_24_,[X_INTRODUCED_17_,X_INTRODUCED_19_],-2);
constraint int_lin_ne(X_INTRODUCED_24_,[X_INTRODUCED_17_,X_INTRODUCED_20_],0);
constraint int_lin_ne(X_INTRODUCED_24_,[X_INTRODUCED_17_,X_INTRODUCED_20_],3);
constraint int_lin_ne(X_INTRODUCED_24_,[X_INTRODUCED_17_,X_INTRODUCED_20_],-3);
constraint int_lin_ne(X_INTRODUCED_24_,[X_INTRODUCED_17_,X_INTRODUCED_21_],0);
constraint int_lin_ne(X_INTRODUCED_24_,[X_INTRODUCED_17_,X_INTRODUCED_21_],4);
constraint int_lin_ne(X_INTRODUCED_24_,[X_INTRODUCED_17_,X_INTRODUCED_21_],-4);
constraint int_lin_ne(X_INTRODUCED_24_,[X_INTRODUCED_17_,X_INTRODUCED_22_],0);
constraint int_lin_ne(X_INTRODUCED_24_,[X_INTRODUCED_17_,X_INTRODUCED_22_],5);
constraint int_lin_ne(X_INTRODUCED_24_,[X_INTRODUCED_17_,X_INTRODUCED_22_],-5);
constraint int_lin_ne(X_INTRODUCED_24_,[X_INTRODUCED_17_,X_INTRODUCED_23_],0);
constraint int_lin_ne(X_INTRODUCED_24_,[X_INTRODUCED_17_,X_INTRODUCED_23_],6);
constraint int_lin_ne(X_INTRODUCED_24_,[X_INTRODUCED_17_,X_INTRODUCED_23_],-6);
constraint int_lin_ne(X_INTRODUCED_24_,[X_INTRODUCED_18_,X_INTRODUCED_19_],0);
constraint int_lin_ne(X_INTRODUCED_24_,[X_INTRODUCED_18_,X_INTRODUCED_19_],1);
constraint int_lin_ne(X_INTRODUCED_24_,[X_INTRODUCED_18_,X_INTRODUCED_19_],-1);
constraint int_lin_ne(X_INTRODUCED_24_,[X_INTRODUCED_18_,X_INTRODUCED_20_],0);
constraint int_lin_ne(X_INTRODUCED_24_,[X_INTRODUCED_18_,X_INTRODUCED_20_],2);
constraint int_lin_ne(X_INTRODUCED_24_,[X_INTRODUCED_18_,X_INTRODUCED_20_],-2);
constraint int_lin_ne(X_INTRODUCED_24_,[X_INTRODUCED_18_,X_INTRODUCED_21_],0);
constraint int_lin_ne(X_INTRODUCED_24_,[X_INTRODUCED_18_,X_INTRODUCED_21_],3);
constraint int_lin_ne(X_INTRODUCED_24_,[X_INTRODUCED_18_,X_INTRODUCED_21_],-3);
constraint int_lin_ne(X_INTRODUCED_24_,[X_INTRODUCED_18_,X_INTRODUCED_22_],0);
constraint int_lin_ne(X_INTRODUCED_24_,[X_INTRODUCED_18_,X_INTRODUCED_22_],4);
constraint int_lin_ne(X_INTRODUCED_24_,[X_INTRODUCED_18_,X_INTRODUCED_22_],-4);
constraint int_lin_ne(X_INTRODUCED_24_,[X_INTRODUCED_18_,X_INTRODUCED_23_],0);
constraint int_lin_ne(X_INTRODUCED_24_,[X_INTRODUCED_18_,X_INTRODUCED_23_],5);
constraint int_lin_ne(X_INTRODUCED_24_,[X_INTRODUCED_18_,X_INTRODUCED_23_],-5);
constraint int_lin_ne(X_INTRODUCED_24_,[X_INTRODUCED_19_,X_INTRODUCED_20_],0);
constraint int_lin_ne(X_INTRODUCED_24_,[X_INTRODUCED_19_,X_INTRODUCED_20_],1);
constraint int_lin_ne(X_INTRODUCED_24_,[X_INTRODUCED_19_,X_INTRODUCED_20_],-1);
constraint int_lin_ne(X_INTRODUCED_24_,[X_INTRODUCED_19_,X_INTRODUCED_21_],0);
constraint int_lin_ne(X_INTRODUCED_24_,[X_INTRODUCED_19_,X_INTRODUCED_21_],2);
constraint int_lin_ne(X_INTRODUCED_24_,[X_INTRODUCED_19_,X_INTRODUCED_21_],-2);
constraint int_lin_ne(X_INTRODUCED_24_,[X_INTRODUCED_19_,X_INTRODUCED_22_],0);
constraint int_lin_ne(X_INTRODUCED_24_,[X_INTRODUCED_19_,X_INTRODUCED_22_],3);
constraint int_lin_ne(X_INTRODUCED_24_,[X_INTRODUCED_19_,X_INTRODUCED_22_],-3);
constraint int_lin_ne(X_INTRODUCED_24_,[X_INTRODUCED_19_,X_INTRODUCED_23_],0);
constraint int_lin_ne(X_INTRODUCED_24_,[X_INTRODUCED_19_,X_INTRODUCED_23_],4);
constraint int_lin_ne(X_INTRODUCED_24_,[X_INTRODUCED_19_,X_INTRODUCED_23_],-4);
constraint int_lin_ne(X_INTRODUCED_24_,[X_INTRODUCED_20_,X_INTRODUCED_21_],0);
constraint int_lin_ne(X_INTRODUCED_24_,[X_INTRODUCED_20_,X_INTRODUCED_21_],1);
constraint int_lin_ne(X_INTRODUCED_24_,[X_INTRODUCED_20_,X_INTRODUCED_21_],-1);
constraint int_lin_ne(X_INTRODUCED_24_,[X_INTRODUCED_20_,X_INTRODUCED_22_],0);
constraint int_lin_ne(X_INTRODUCED_24_,[X_INTRODUCED_20_,X_INTRODUCED_22_],2);
constraint int_lin_ne(X_INTRODUCED_24_,[X_INTRODUCED_20_,X_INTRODUCED_22_],-2);
constraint int_lin_ne(X_INTRODUCED_24_,[X_INTRODUCED_20_,X_INTRODUCED_23_],0);
constraint int_lin_ne(X_INTRODUCED_24_,[X_INTRODUCED_20_,X_INTRODUCED_23_],3);
constraint int_lin_ne(X_INTRODUCED_24_,[X_INTRODUCED_20_,X_INTRODUCED_23_],-3);
constraint int_lin_ne(X_INTRODUCED_24_,[X_INTRODUCED_21_,X_INTRODUCED_22_],0);
constraint int_lin_ne(X_INTRODUCED_24_,[X_INTRODUCED_21_,X_INTRODUCED_22_],1);
constraint int_lin_ne(X_INTRODUCED_24_,[X_INTRODUCED_21_,X_INTRODUCED_22_],-1);
constraint int_lin_ne(X_INTRODUCED_24_,[X_INTRODUCED_21_,X_INTRODUCED_23_],0);
constraint int_lin_ne(X_INTRODUCED_24_,[X_INTRODUCED_21_,X_INTRODUCED_23_],2);
constraint int_lin_ne(X_INTRODUCED_24_,[X_INTRODUCED_21_,X_INTRODUCED_23_],-2);
constraint int_lin_ne(X_INTRODUCED_24_,[X_INTRODUCED_22_,X_INTRODUCED_23_],0);
constraint int_lin_ne(X_INTRODUCED_24_,[X_INTRODUCED_22_,X_INTRODUCED_23_],1);
constraint int_lin_ne(X_INTRODUCED_24_,[X_INTRODUCED_22_,X_INTRODUCED_23_],-1);
solve :: int_search(queens,first_fail,indomain_min,complete) satisfy;
